MAX
A&b&NomeProfessor&NomeMateriaB+A&a&NomeProfessor&NomeMateriaB+A&b&NomeProfessora&NomeMateriaA+A&a&NomeProfessora&NomeMateriaA
ST
A&b&NomeProfessor&NomeMateriaB+A&b&NomeProfessora&NomeMateriaA<1
A&a&NomeProfessor&NomeMateriaB+A&a&NomeProfessora&NomeMateriaA<1
A&b&NomeProfessora&NomeMateriaA+A&a&NomeProfessora&NomeMateriaA<1
A&b&NomeProfessor&NomeMateriaB+A&a&NomeProfessor&NomeMateriaB<1
A&b&NomeProfessor&NomeMateriaB<1
A&a&NomeProfessor&NomeMateriaB<1
A&b&NomeProfessora&NomeMateriaA<1
A&a&NomeProfessora&NomeMateriaA<1
END
GIN A&b&NomeProfessor&NomeMateriaB
GIN A&a&NomeProfessor&NomeMateriaB
GIN A&b&NomeProfessora&NomeMateriaA
GIN A&a&NomeProfessora&NomeMateriaA
